; benchmark generated from python API
(set-info :status unknown)
(declare-fun x_epoch () Int)
(declare-fun x_shift_period_667410_epoch () Int)
(declare-fun x_year () Int)
(declare-fun x_month () Int)
(declare-fun x_day () Int)
(declare-fun x_shift_period_667410_year () Int)
(declare-fun x_shift_period_667410_month () Int)
(declare-fun x_shift_period_667410_day () Int)
(declare-fun x_shift_period_675331_epoch () Int)
(declare-fun x_shift_period_675331_year () Int)
(declare-fun x_shift_period_675331_month () Int)
(declare-fun x_shift_period_675331_day () Int)
(assert
 (>= x_epoch (- 36584)))
(assert
 (<= x_epoch 36829))
(assert
 (>= x_epoch 7214))
(assert
 (<= x_epoch 7304))
(assert
 (>= x_shift_period_667410_epoch (- 36584)))
(assert
 (<= x_shift_period_667410_epoch 36829))
(assert
 (let (($x196 (<= x_year 2100)))
 (let (($x635 (>= x_year 1900)))
 (let (($x3375 (= x_month 11)))
 (let (($x550 (= x_month 9)))
 (let (($x315 (= x_month 6)))
 (let (($x340 (= x_month 4)))
 (let ((?x358 (ite (or $x340 $x315 $x550 $x3375) 30 31)))
 (let (($x3127 (= (mod x_year 4) 0)))
 (let (($x600 (= (mod x_year 100) 0)))
 (let (($x146 (= (mod x_year 400) 0)))
 (let (($x2897 (ite $x146 true (ite $x600 false $x3127))))
 (let (($x560 (= x_month 2)))
 (let ((?x3309 (ite $x560 (ite $x2897 29 28) ?x358)))
 (let (($x3358 (>= x_day 1)))
 (let (($x787 (<= x_month 12)))
 (let (($x164 (>= x_month 1)))
 (and $x164 $x787 $x3358 (<= x_day ?x3309) $x635 $x196))))))))))))))))))
(assert
 (let (($x29 (or (and (= (mod 2000 4) 0) (and (distinct (mod 2000 100) 0) true)) (= (mod 2000 400) 0))))
 (let ((?x36 (ite (= 3 2) (ite $x29 31 31) (ite (= 3 1) (ite $x29 0 0) 0))))
 (let ((?x40 (ite $x29 60 59)))
 (let ((?x41 (ite (= 3 3) ?x40 ?x36)))
 (let ((?x46 (ite (= 3 4) (ite $x29 91 90) ?x41)))
 (let ((?x52 (ite (= 3 5) (ite $x29 121 120) ?x46)))
 (let ((?x58 (ite (= 3 6) (ite $x29 152 151) ?x52)))
 (let ((?x64 (ite (= 3 7) (ite $x29 182 181) ?x58)))
 (let ((?x70 (ite (= 3 8) (ite $x29 213 212) ?x64)))
 (let ((?x76 (ite (= 3 9) (ite $x29 244 243) ?x70)))
 (let ((?x82 (ite (= 3 10) (ite $x29 274 273) ?x76)))
 (let ((?x88 (ite (= 3 11) (ite $x29 305 304) ?x82)))
 (let ((?x16 (- (+ (* 365 (- 2000 1)) (div (- 2000 1) 4)) (div (- 2000 1) 100))))
 (let ((?x95 (+ (+ ?x16 (div (- 2000 1) 400)) (ite (= 3 12) (ite $x29 335 334) ?x88))))
 (let ((?x97 (+ ?x95 (- 1 1))))
 (let (($x3127 (= (mod x_year 4) 0)))
 (let (($x600 (= (mod x_year 100) 0)))
 (let (($x146 (= (mod x_year 400) 0)))
 (let (($x2897 (ite $x146 true (ite $x600 false $x3127))))
 (let (($x675 (= 2 x_month)))
 (let ((?x373 (ite $x675 (ite $x2897 31 31) (ite (= 1 x_month) (ite $x2897 0 0) 0))))
 (let (($x764 (= 3 x_month)))
 (let (($x463 (= 4 x_month)))
 (let ((?x670 (ite $x463 (ite $x2897 91 90) (ite $x764 (ite $x2897 60 59) ?x373))))
 (let (($x2211 (= 5 x_month)))
 (let (($x691 (= 6 x_month)))
 (let ((?x431 (ite $x691 (ite $x2897 152 151) (ite $x2211 (ite $x2897 121 120) ?x670))))
 (let (($x838 (= 7 x_month)))
 (let (($x539 (= 8 x_month)))
 (let ((?x2935 (ite $x539 (ite $x2897 213 212) (ite $x838 (ite $x2897 182 181) ?x431))))
 (let (($x909 (= 9 x_month)))
 (let (($x472 (= 10 x_month)))
 (let ((?x535 (ite $x472 (ite $x2897 274 273) (ite $x909 (ite $x2897 244 243) ?x2935))))
 (let (($x546 (= 11 x_month)))
 (let (($x3334 (= 12 x_month)))
 (let ((?x140 (ite $x3334 (ite $x2897 335 334) (ite $x546 (ite $x2897 305 304) ?x535))))
 (let ((?x806 (- (+ (* 365 (- x_year 1)) (div (- x_year 1) 4)) (div (- x_year 1) 100))))
 (let ((?x3942 (+ (+ (+ ?x806 (div (- x_year 1) 400)) ?x140) (- x_day 1))))
 (= x_epoch (- ?x3942 ?x97)))))))))))))))))))))))))))))))))))))))))
(assert
 (let (($x1283 (<= x_shift_period_667410_year 2100)))
 (let (($x3031 (>= x_shift_period_667410_year 1900)))
 (let (($x2596 (= x_shift_period_667410_month 11)))
 (let (($x3692 (= x_shift_period_667410_month 9)))
 (let (($x1369 (= x_shift_period_667410_month 6)))
 (let (($x1694 (= x_shift_period_667410_month 4)))
 (let ((?x2685 (ite (or $x1694 $x1369 $x3692 $x2596) 30 31)))
 (let (($x1612 (= (mod x_shift_period_667410_year 4) 0)))
 (let (($x3094 (= (mod x_shift_period_667410_year 100) 0)))
 (let (($x1360 (= (mod x_shift_period_667410_year 400) 0)))
 (let (($x1588 (ite $x1360 true (ite $x3094 false $x1612))))
 (let (($x2773 (= x_shift_period_667410_month 2)))
 (let (($x1626 (>= x_shift_period_667410_day 1)))
 (let (($x2530 (<= x_shift_period_667410_month 12)))
 (let (($x2940 (>= x_shift_period_667410_month 1)))
 (and $x2940 $x2530 $x1626 (<= x_shift_period_667410_day (ite $x2773 (ite $x1588 29 28) ?x2685)) $x3031 $x1283)))))))))))))))))
(assert
 (let (($x29 (or (and (= (mod 2000 4) 0) (and (distinct (mod 2000 100) 0) true)) (= (mod 2000 400) 0))))
 (let ((?x36 (ite (= 3 2) (ite $x29 31 31) (ite (= 3 1) (ite $x29 0 0) 0))))
 (let ((?x40 (ite $x29 60 59)))
 (let ((?x41 (ite (= 3 3) ?x40 ?x36)))
 (let ((?x46 (ite (= 3 4) (ite $x29 91 90) ?x41)))
 (let ((?x52 (ite (= 3 5) (ite $x29 121 120) ?x46)))
 (let ((?x58 (ite (= 3 6) (ite $x29 152 151) ?x52)))
 (let ((?x64 (ite (= 3 7) (ite $x29 182 181) ?x58)))
 (let ((?x70 (ite (= 3 8) (ite $x29 213 212) ?x64)))
 (let ((?x76 (ite (= 3 9) (ite $x29 244 243) ?x70)))
 (let ((?x82 (ite (= 3 10) (ite $x29 274 273) ?x76)))
 (let ((?x88 (ite (= 3 11) (ite $x29 305 304) ?x82)))
 (let ((?x16 (- (+ (* 365 (- 2000 1)) (div (- 2000 1) 4)) (div (- 2000 1) 100))))
 (let ((?x95 (+ (+ ?x16 (div (- 2000 1) 400)) (ite (= 3 12) (ite $x29 335 334) ?x88))))
 (let ((?x97 (+ ?x95 (- 1 1))))
 (let (($x1612 (= (mod x_shift_period_667410_year 4) 0)))
 (let (($x3094 (= (mod x_shift_period_667410_year 100) 0)))
 (let (($x1360 (= (mod x_shift_period_667410_year 400) 0)))
 (let (($x1588 (ite $x1360 true (ite $x3094 false $x1612))))
 (let ((?x3086 (ite (= 1 x_shift_period_667410_month) (ite $x1588 0 0) 0)))
 (let ((?x1928 (ite (= 3 x_shift_period_667410_month) (ite $x1588 60 59) (ite (= 2 x_shift_period_667410_month) (ite $x1588 31 31) ?x3086))))
 (let ((?x1366 (ite (= 5 x_shift_period_667410_month) (ite $x1588 121 120) (ite (= 4 x_shift_period_667410_month) (ite $x1588 91 90) ?x1928))))
 (let ((?x1789 (ite (= 7 x_shift_period_667410_month) (ite $x1588 182 181) (ite (= 6 x_shift_period_667410_month) (ite $x1588 152 151) ?x1366))))
 (let ((?x3648 (ite (= 9 x_shift_period_667410_month) (ite $x1588 244 243) (ite (= 8 x_shift_period_667410_month) (ite $x1588 213 212) ?x1789))))
 (let ((?x2664 (ite (= 11 x_shift_period_667410_month) (ite $x1588 305 304) (ite (= 10 x_shift_period_667410_month) (ite $x1588 274 273) ?x3648))))
 (let ((?x295 (+ (* 365 (- x_shift_period_667410_year 1)) (div (- x_shift_period_667410_year 1) 4))))
 (let ((?x2852 (+ (- ?x295 (div (- x_shift_period_667410_year 1) 100)) (div (- x_shift_period_667410_year 1) 400))))
 (let ((?x2846 (+ ?x2852 (ite (= 12 x_shift_period_667410_month) (ite $x1588 335 334) ?x2664))))
 (= x_shift_period_667410_epoch (- (+ ?x2846 (- x_shift_period_667410_day 1)) ?x97)))))))))))))))))))))))))))))))
(assert
 (let ((?x492 (* 12 x_year)))
 (let ((?x478 (+ ?x492 (- x_month 1))))
 (let ((?x1276 (+ ?x478 12)))
 (let ((?x3373 (div ?x1276 12)))
 (= x_shift_period_667410_year ?x3373))))))
(assert
 (let ((?x2235 (+ (mod (+ (+ (* 12 x_year) (- x_month 1)) 12) 12) 1)))
 (= x_shift_period_667410_month ?x2235)))
(assert
 (let ((?x2235 (+ (mod (+ (+ (* 12 x_year) (- x_month 1)) 12) 12) 1)))
 (let ((?x1135 (ite (or (= ?x2235 4) (= ?x2235 6) (= ?x2235 9) (= ?x2235 11)) 30 31)))
 (let ((?x492 (* 12 x_year)))
 (let ((?x478 (+ ?x492 (- x_month 1))))
 (let ((?x1276 (+ ?x478 12)))
 (let ((?x3373 (div ?x1276 12)))
 (let (($x2286 (ite (= (mod ?x3373 400) 0) true (ite (= (mod ?x3373 100) 0) false (= (mod ?x3373 4) 0)))))
 (let ((?x2010 (ite (= ?x2235 2) (ite $x2286 29 28) ?x1135)))
 (let ((?x1395 (ite (<= x_day ?x2010) x_day ?x2010)))
 (let (($x3375 (= x_month 11)))
 (let (($x550 (= x_month 9)))
 (let (($x315 (= x_month 6)))
 (let (($x340 (= x_month 4)))
 (let ((?x358 (ite (or $x340 $x315 $x550 $x3375) 30 31)))
 (let (($x3127 (= (mod x_year 4) 0)))
 (let (($x600 (= (mod x_year 100) 0)))
 (let (($x146 (= (mod x_year 400) 0)))
 (let (($x2897 (ite $x146 true (ite $x600 false $x3127))))
 (let (($x560 (= x_month 2)))
 (let ((?x3309 (ite $x560 (ite $x2897 29 28) ?x358)))
 (let (($x286 (= x_day ?x3309)))
 (= x_shift_period_667410_day (ite false (ite $x286 ?x2010 ?x1395) ?x1395))))))))))))))))))))))))
(assert
 (>= x_shift_period_675331_epoch (- 36584)))
(assert
 (<= x_shift_period_675331_epoch 36829))
(assert
 (let (($x2134 (<= x_shift_period_675331_year 2100)))
 (let (($x2763 (>= x_shift_period_675331_year 1900)))
 (let (($x3625 (= x_shift_period_675331_month 11)))
 (let (($x2100 (= x_shift_period_675331_month 9)))
 (let (($x2988 (= x_shift_period_675331_month 6)))
 (let (($x1400 (= x_shift_period_675331_month 4)))
 (let ((?x641 (ite (or $x1400 $x2988 $x2100 $x3625) 30 31)))
 (let (($x2238 (= (mod x_shift_period_675331_year 4) 0)))
 (let (($x1756 (= (mod x_shift_period_675331_year 100) 0)))
 (let (($x3136 (= (mod x_shift_period_675331_year 400) 0)))
 (let (($x2419 (ite $x3136 true (ite $x1756 false $x2238))))
 (let (($x2162 (= x_shift_period_675331_month 2)))
 (let (($x3439 (>= x_shift_period_675331_day 1)))
 (let (($x267 (<= x_shift_period_675331_month 12)))
 (let (($x3140 (>= x_shift_period_675331_month 1)))
 (and $x3140 $x267 $x3439 (<= x_shift_period_675331_day (ite $x2162 (ite $x2419 29 28) ?x641)) $x2763 $x2134)))))))))))))))))
(assert
 (let (($x29 (or (and (= (mod 2000 4) 0) (and (distinct (mod 2000 100) 0) true)) (= (mod 2000 400) 0))))
 (let ((?x36 (ite (= 3 2) (ite $x29 31 31) (ite (= 3 1) (ite $x29 0 0) 0))))
 (let ((?x40 (ite $x29 60 59)))
 (let ((?x41 (ite (= 3 3) ?x40 ?x36)))
 (let ((?x46 (ite (= 3 4) (ite $x29 91 90) ?x41)))
 (let ((?x52 (ite (= 3 5) (ite $x29 121 120) ?x46)))
 (let ((?x58 (ite (= 3 6) (ite $x29 152 151) ?x52)))
 (let ((?x64 (ite (= 3 7) (ite $x29 182 181) ?x58)))
 (let ((?x70 (ite (= 3 8) (ite $x29 213 212) ?x64)))
 (let ((?x76 (ite (= 3 9) (ite $x29 244 243) ?x70)))
 (let ((?x82 (ite (= 3 10) (ite $x29 274 273) ?x76)))
 (let ((?x88 (ite (= 3 11) (ite $x29 305 304) ?x82)))
 (let ((?x16 (- (+ (* 365 (- 2000 1)) (div (- 2000 1) 4)) (div (- 2000 1) 100))))
 (let ((?x95 (+ (+ ?x16 (div (- 2000 1) 400)) (ite (= 3 12) (ite $x29 335 334) ?x88))))
 (let ((?x97 (+ ?x95 (- 1 1))))
 (let (($x2238 (= (mod x_shift_period_675331_year 4) 0)))
 (let (($x1756 (= (mod x_shift_period_675331_year 100) 0)))
 (let (($x3136 (= (mod x_shift_period_675331_year 400) 0)))
 (let (($x2419 (ite $x3136 true (ite $x1756 false $x2238))))
 (let ((?x2330 (ite (= 1 x_shift_period_675331_month) (ite $x2419 0 0) 0)))
 (let ((?x3069 (ite (= 3 x_shift_period_675331_month) (ite $x2419 60 59) (ite (= 2 x_shift_period_675331_month) (ite $x2419 31 31) ?x2330))))
 (let ((?x3712 (ite (= 5 x_shift_period_675331_month) (ite $x2419 121 120) (ite (= 4 x_shift_period_675331_month) (ite $x2419 91 90) ?x3069))))
 (let ((?x3764 (ite (= 7 x_shift_period_675331_month) (ite $x2419 182 181) (ite (= 6 x_shift_period_675331_month) (ite $x2419 152 151) ?x3712))))
 (let ((?x1383 (ite (= 9 x_shift_period_675331_month) (ite $x2419 244 243) (ite (= 8 x_shift_period_675331_month) (ite $x2419 213 212) ?x3764))))
 (let ((?x2044 (ite (= 11 x_shift_period_675331_month) (ite $x2419 305 304) (ite (= 10 x_shift_period_675331_month) (ite $x2419 274 273) ?x1383))))
 (let ((?x256 (+ (* 365 (- x_shift_period_675331_year 1)) (div (- x_shift_period_675331_year 1) 4))))
 (let ((?x3288 (+ (- ?x256 (div (- x_shift_period_675331_year 1) 100)) (div (- x_shift_period_675331_year 1) 400))))
 (let ((?x2406 (+ ?x3288 (ite (= 12 x_shift_period_675331_month) (ite $x2419 335 334) ?x2044))))
 (= x_shift_period_675331_epoch (- (+ ?x2406 (- x_shift_period_675331_day 1)) ?x97)))))))))))))))))))))))))))))))
(assert
 (let ((?x455 (+ (mod (+ (+ (* 12 x_year) (- x_month 1)) 0) 12) 1)))
 (let (($x856 (= ?x455 11)))
 (let (($x276 (= ?x455 9)))
 (let (($x344 (= ?x455 6)))
 (let (($x613 (= ?x455 4)))
 (let ((?x492 (* 12 x_year)))
 (let ((?x478 (+ ?x492 (- x_month 1))))
 (let ((?x1660 (+ ?x478 0)))
 (let ((?x283 (div ?x1660 12)))
 (let (($x1534 (ite (= (mod ?x283 400) 0) true (ite (= (mod ?x283 100) 0) false (= (mod ?x283 4) 0)))))
 (let (($x896 (= ?x455 2)))
 (let ((?x878 (ite $x896 (ite $x1534 29 28) (ite (or $x613 $x344 $x276 $x856) 30 31))))
 (let ((?x851 (ite (<= x_day ?x878) x_day ?x878)))
 (let (($x3375 (= x_month 11)))
 (let (($x550 (= x_month 9)))
 (let (($x315 (= x_month 6)))
 (let (($x340 (= x_month 4)))
 (let ((?x358 (ite (or $x340 $x315 $x550 $x3375) 30 31)))
 (let (($x3127 (= (mod x_year 4) 0)))
 (let (($x600 (= (mod x_year 100) 0)))
 (let (($x146 (= (mod x_year 400) 0)))
 (let (($x2897 (ite $x146 true (ite $x600 false $x3127))))
 (let (($x560 (= x_month 2)))
 (let ((?x3309 (ite $x560 (ite $x2897 29 28) ?x358)))
 (let (($x286 (= x_day ?x3309)))
 (let ((?x220 (ite (= ?x455 8) 212 (ite $x276 243 (ite (= ?x455 10) 273 (ite $x856 304 334))))))
 (let ((?x774 (ite (= ?x455 5) 120 (ite $x344 151 (ite (= ?x455 7) 181 ?x220)))))
 (let ((?x831 (ite (= ?x455 1) 0 (ite $x896 31 (ite (= ?x455 3) 59 (ite $x613 90 ?x774))))))
 (let ((?x1220 (- (+ (* 365 (- ?x283 1)) (div (- ?x283 1) 4)) (div (- ?x283 1) 100))))
 (let ((?x2581 (+ (+ ?x1220 (div (- ?x283 1) 400)) (+ ?x831 (ite (and $x1534 (> ?x455 2)) 1 0)))))
 (let ((?x3011 (+ ?x2581 (- (ite false (ite $x286 ?x878 ?x851) ?x851) 1))))
 (= x_shift_period_675331_epoch (+ ?x3011 366))))))))))))))))))))))))))))))))))
(assert
 (not (= x_shift_period_667410_epoch x_shift_period_675331_epoch)))
(check-sat)
